problem_generation/data/GISP/train/er_n=65_m=1259_p=0.60_SET2_setparam=100.00_alpha=0.50_871.lp
maximize
OBJ:100x0 + 100x1 + 100x2 + 100x3 + 100x4 + 100x5 + 100x6 + 100x7 + 100x8 + 100x9 + 100x10 + 100x11 + 100x12 + 100x13 + 100x14 + 100x15 + 100x16 + 100x17 + 100x18 + 100x19 + 100x20 + 100x21 + 100x22 + 100x23 + 100x24 + 100x25 + 100x26 + 100x27 + 100x28 + 100x29 + 100x30 + 100x31 + 100x32 + 100x33 + 100x34 + 100x35 + 100x36 + 100x37 + 100x38 + 100x39 + 100x40 + 100x41 + 100x42 + 100x43 + 100x44 + 100x45 + 100x46 + 100x47 + 100x48 + 100x49 + 100x50 + 100x51 + 100x52 + 100x53 + 100x54 + 100x55 + 100x56 + 100x57 + 100x58 + 100x59 + 100x60 + 100x61 + 100x62 + 100x63 + 100x64 - y7_17 - y36_53 - y28_58 - y7_35 - y0_5 - y29_41 - y8_18 - y21_37 - y48_54 - y6_48 - y11_14 - y48_63 - y29_59 - y21_55 - y33_38 - y41_51 - y33_47 - y25_52 - y51_64 - y3_24 - y22_37 - y22_46 - y15_16 - y47_48 - y15_25 - y18_30 - y9_49 - y5_60 - y21_32 - y29_45 - y40_45 - y6_52 - y29_54 - y21_59 - y2_27 - y25_29 - y10_40 - y2_36 - y25_38 - y3_10 - y22_23 - y24_60 - y3_37 - y47_52 - y5_46 - y17_48 - y59_63 - y28_57 - y21_27 - y6_47 - y40_49 - y40_58 - y10_17 - y39_62 - y62_64 - y54_60 - y10_35 - y33_37 - y25_42 - y32_41 - y43_50 - y22_27 - y24_46 - y51_63 - y3_23 - y14_23 - y14_32 - y13_64 - y28_34 - y9_30 - y55_60 - y28_43 - y36_56 - y5_50 - y6_15 - y17_52 - y28_61 - y9_57 - y6_33 - y21_31 - y6_42 - y29_44 - y6_51 - y21_49 - y10_12 - y39_48 - y2_8 - y10_21 - y20_53 - y54_55 - y25_28 - y32_36 - y13_32 - y3_9 - y32_45 - y51_58 - y24_41 - y32_54 - y16_37 - y43_54 - y35_50 - y32_63 - y16_46 - y43_63 - y1_57 - y16_55 - y17_20 - y36_42 - y47_51 - y17_47 - y17_56 - y50_53 - y5_63 - y6_28 - y6_46 - y23_53 - y2_30 - y12_62 - y23_62 - y32_40 - y13_36 - y43_49 - y16_32 - y1_43 - y35_45 - y16_50 - y24_63 - y5_22 - y46_60 - y9_20 - y5_40 - y9_38 - y6_14 - y9_47 - y42_44 - y50_57 - y6_32 - y21_30 - y30_60 - y11_56 - y20_34 - y12_39 - y23_48 - y54_63 - y4_44 - y12_57 - y16_18 - y24_31 - y4_62 - y1_38 - y16_36 - y35_58 - y9_15 - y38_51 - y46_64 - y57_64 - y28_37 - y9_33 - y7_63 - y27_41 - y6_18 - y27_50 - y30_46 - y42_48 - y50_61 - y19_55 - y0_60 - y39_51 - y12_34 - y23_34 - y20_47 - y4_30 - y31_47 - y12_43 - y23_43 - y4_39 - y23_52 - y13_17 - y13_26 - y53_62 - y34_58 - y13_35 - y35_44 - y37_63 - y16_40 - y9_10 - y38_46 - y17_23 - y46_59 - y57_59 - y15_53 - y19_41 - y42_43 - y27_54 - y50_56 - y8_50 - y42_52 - y27_63 - y0_46 - y8_59 - y20_24 - y0_55 - y20_42 - y4_25 - y12_38 - y1_19 - y13_21 - y34_53 - y22_60 - y1_37 - y37_58 - y1_46 - y46_54 - y9_14 - y26_48 - y15_57 - y26_57 - y27_31 - y7_62 - y19_54 - y8_63 - y60_64 - y39_41 - y23_24 - y52_60 - y4_20 - y4_29 - y4_38 - y1_14 - y4_47 - y34_48 - y1_23 - y24_25 - y34_57 - y45_57 - y15_43 - y7_39 - y38_54 - y49_54 - y7_48 - y26_61 - y49_63 - y7_57 - y27_35 - y11_18 - y27_44 - y11_27 - y30_49 - y20_23 - y33_51 - y33_60 - y23_37 - y4_33 - y1_9 - y22_41 - y34_61 - y3_64 - y26_38 - y26_47 - y15_56 - y26_56 - y7_52 - y18_52 - y27_30 - y7_61 - y19_26 - y48_62 - y11_22 - y19_35 - y19_44 - y30_44 - y0_40 - y11_49 - y12_14 - y41_50 - y4_19 - y4_28 - y10_62 - y1_4 - y1_13 - y3_41 - y37_43 - y22_54 - y45_56 - y37_52 - y14_59 - y7_20 - y7_38 - y18_47 - y19_21 - y11_17 - y40_53 - y29_62 - y63_64 - y0_35 - y41_54 - y25_37 - y10_48 - y41_63 - y2_44 - y25_46 - y2_53 - y25_64 - y3_27 - y14_27 - y37_38 - y3_45 - y37_47 - y22_58 - y3_54 - y7_15 - y14_63 - y59_62 - y15_37 - y26_37 - y7_42 - y8_16 - y48_52 - y29_48 - y40_48 - y48_61 - y11_21 - y21_53 - y6_64 - y33_36 - y2_39 - y10_52 - y33_63 - y44_63 - y2_57 - y3_22 - y22_35 - y3_49 - y15_23 - y18_19 - y47_55 - y36_64 - y28_60 - y7_37 - y29_34 - y8_11 - y0_7 - y48_56 - y21_39 - y0_16 - y6_50 - y29_52 - y29_61 - y41_44 - y10_38 - y25_36 - y10_47 - y10_56 - y51_57 - y32_62 - y13_58 - y3_44 - y16_63 - y36_41 - y15_18 - y28_46 - y7_23 - y28_55 - y28_64 - y6_36 - y29_38 - y6_45 - y6_54 - y29_56 - y21_52 - y10_15 - y2_20 - y25_31 - y33_44 - y51_61 - y3_21 - y13_53 - y35_53 - y13_62 - y28_41 - y28_50 - y36_63 - y5_57 - y9_55 - y40_42 - y10_19 - y39_64 - y25_26 - y10_37 - y25_35 - y3_7 - y24_39 - y14_16 - y32_52 - y24_48 - y35_48 - y32_61 - y24_57 - y16_53 - y17_18 - y36_40 - y47_49 - y17_45 - y47_58 - y5_52 - y17_54 - y6_26 - y58_64 - y39_50 - y2_10 - y20_46 - y31_55 - y54_57 - y12_51 - y31_64 - y12_60 - y3_11 - y43_47 - y13_43 - y35_43 - y1_50 - y16_48 - y1_59 - y24_61 - y16_57 - y9_18 - y5_29 - y9_27 - y5_38 - y9_36 - y5_47 - y9_45 - y5_56 - y21_28 - y27_62 - y8_58 - y2_5 - y10_18 - y20_50 - y31_50 - y39_63 - y13_20 - y23_64 - y32_42 - y1_36 - y1_45 - y13_47 - y1_54 - y46_53 - y9_13 - y16_61 - y17_26 - y9_31 - y5_42 - y28_44 - y27_48 - y21_23 - y27_57 - y50_59 - y8_53 - y19_53 - y0_49 - y8_62 - y20_27 - y30_62 - y39_40 - y10_13 - y39_49 - y23_50 - y20_63 - y31_63 - y23_59 - y53_60 - y4_55 - y1_31 - y24_33 - y4_64 - y32_46 - y43_46 - y24_42 - y35_42 - y16_38 - y16_47 - y5_10 - y17_21 - y38_53 - y15_60 - y26_60 - y6_20 - y19_57 - y30_57 - y42_59 - y11_53 - y39_44 - y4_23 - y39_53 - y31_58 - y12_54 - y1_17 - y24_28 - y4_59 - y16_24 - y34_60 - y1_35 - y35_37 - y56_60 - y1_44 - y38_39 - y5_23 - y9_21 - y26_55 - y49_57 - y15_64 - y27_29 - y19_34 - y30_43 - y19_52 - y0_48 - y11_48 - y12_13 - y19_61 - y20_26 - y20_35 - y23_31 - y13_23 - y53_59 - y4_54 - y16_19 - y45_55 - y22_62 - y46_47 - y46_56 - y9_16 - y18_46 - y15_59 - y49_61 - y7_55 - y19_20 - y27_33 - y18_64 - y19_29 - y30_38 - y27_51 - y19_56 - y0_52 - y41_53 - y52_53 - y41_62 - y52_62 - y1_7 - y22_57 - y56_59 - y3_53 - y14_53 - y37_55 - y37_64 - y15_27 - y15_36 - y46_51 - y7_32 - y18_32 - y7_41 - y18_41 - y26_54 - y49_56 - y0_11 - y19_24 - y48_60 - y27_46 - y8_42 - y11_38 - y0_47 - y52_57 - y33_53 - y4_35 - y34_36 - y22_43 - y53_58 - y37_41 - y3_48 - y14_57 - y15_22 - y38_42 - y7_36 - y26_49 - y7_45 - y18_45 - y26_58 - y0_6 - y48_55 - y27_32 - y19_28 - y19_37 - y30_37 - y11_33 - y41_43 - y41_61 - y2_51 - y25_53 - y3_34 - y34_49 - y56_58 - y14_52 - y37_54 - y15_26 - y59_60 - y15_35 - y7_31 - y15_44 - y18_40 - y48_50 - y48_59 - y29_55 - y30_32 - y6_62 - y40_64 - y21_60 - y33_34 - y25_30 - y41_56 - y25_57 - y14_20 - y3_38 - y14_38 - y22_51 - y37_40 - y7_8
 Subject to
C1: x0+x1 <=1 
C2: x0+x5-y0_5 <=1 
C3: x0+x6-y0_6 <=1 
C4: x0+x7-y0_7 <=1 
C5: x0+x9 <=1 
C6: x0+x10 <=1 
C7: x0+x11-y0_11 <=1 
C8: x0+x15 <=1 
C9: x0+x16-y0_16 <=1 
C10: x0+x19 <=1 
C11: x0+x23 <=1 
C12: x0+x25 <=1 
C13: x0+x26 <=1 
C14: x0+x29 <=1 
C15: x0+x31 <=1 
C16: x0+x33 <=1 
C17: x0+x35-y0_35 <=1 
C18: x0+x40-y0_40 <=1 
C19: x0+x42 <=1 
C20: x0+x45 <=1 
C21: x0+x46-y0_46 <=1 
C22: x0+x47-y0_47 <=1 
C23: x0+x48-y0_48 <=1 
C24: x0+x49-y0_49 <=1 
C25: x0+x51 <=1 
C26: x0+x52-y0_52 <=1 
C27: x0+x53 <=1 
C28: x0+x55-y0_55 <=1 
C29: x0+x57 <=1 
C30: x0+x58 <=1 
C31: x0+x59 <=1 
C32: x0+x60-y0_60 <=1 
C33: x0+x61 <=1 
C34: x0+x63 <=1 
C35: x1+x2 <=1 
C36: x1+x4-y1_4 <=1 
C37: x1+x7-y1_7 <=1 
C38: x1+x9-y1_9 <=1 
C39: x1+x10 <=1 
C40: x1+x11 <=1 
C41: x1+x13-y1_13 <=1 
C42: x1+x14-y1_14 <=1 
C43: x1+x15 <=1 
C44: x1+x17-y1_17 <=1 
C45: x1+x19-y1_19 <=1 
C46: x1+x22 <=1 
C47: x1+x23-y1_23 <=1 
C48: x1+x24 <=1 
C49: x1+x25 <=1 
C50: x1+x26 <=1 
C51: x1+x31-y1_31 <=1 
C52: x1+x32 <=1 
C53: x1+x33 <=1 
C54: x1+x34 <=1 
C55: x1+x35-y1_35 <=1 
C56: x1+x36-y1_36 <=1 
C57: x1+x37-y1_37 <=1 
C58: x1+x38-y1_38 <=1 
C59: x1+x40 <=1 
C60: x1+x43-y1_43 <=1 
C61: x1+x44-y1_44 <=1 
C62: x1+x45-y1_45 <=1 
C63: x1+x46-y1_46 <=1 
C64: x1+x47 <=1 
C65: x1+x49 <=1 
C66: x1+x50-y1_50 <=1 
C67: x1+x52 <=1 
C68: x1+x54-y1_54 <=1 
C69: x1+x55 <=1 
C70: x1+x57-y1_57 <=1 
C71: x1+x59-y1_59 <=1 
C72: x1+x63 <=1 
C73: x1+x64 <=1 
C74: x2+x5-y2_5 <=1 
C75: x2+x8-y2_8 <=1 
C76: x2+x10-y2_10 <=1 
C77: x2+x11 <=1 
C78: x2+x12 <=1 
C79: x2+x20-y2_20 <=1 
C80: x2+x22 <=1 
C81: x2+x25 <=1 
C82: x2+x27-y2_27 <=1 
C83: x2+x30-y2_30 <=1 
C84: x2+x33 <=1 
C85: x2+x36-y2_36 <=1 
C86: x2+x39-y2_39 <=1 
C87: x2+x41 <=1 
C88: x2+x44-y2_44 <=1 
C89: x2+x45 <=1 
C90: x2+x47 <=1 
C91: x2+x48 <=1 
C92: x2+x50 <=1 
C93: x2+x51-y2_51 <=1 
C94: x2+x52 <=1 
C95: x2+x53-y2_53 <=1 
C96: x2+x55 <=1 
C97: x2+x57-y2_57 <=1 
C98: x2+x58 <=1 
C99: x2+x62 <=1 
C100: x3+x7-y3_7 <=1 
C101: x3+x9-y3_9 <=1 
C102: x3+x10-y3_10 <=1 
C103: x3+x11-y3_11 <=1 
C104: x3+x16 <=1 
C105: x3+x19 <=1 
C106: x3+x21-y3_21 <=1 
C107: x3+x22-y3_22 <=1 
C108: x3+x23-y3_23 <=1 
C109: x3+x24-y3_24 <=1 
C110: x3+x27-y3_27 <=1 
C111: x3+x28 <=1 
C112: x3+x30 <=1 
C113: x3+x31 <=1 
C114: x3+x32 <=1 
C115: x3+x33 <=1 
C116: x3+x34-y3_34 <=1 
C117: x3+x37-y3_37 <=1 
C118: x3+x38-y3_38 <=1 
C119: x3+x41-y3_41 <=1 
C120: x3+x42 <=1 
C121: x3+x43 <=1 
C122: x3+x44-y3_44 <=1 
C123: x3+x45-y3_45 <=1 
C124: x3+x48-y3_48 <=1 
C125: x3+x49-y3_49 <=1 
C126: x3+x52 <=1 
C127: x3+x53-y3_53 <=1 
C128: x3+x54-y3_54 <=1 
C129: x3+x58 <=1 
C130: x3+x61 <=1 
C131: x3+x62 <=1 
C132: x3+x63 <=1 
C133: x3+x64-y3_64 <=1 
C134: x4+x5 <=1 
C135: x4+x6 <=1 
C136: x4+x7 <=1 
C137: x4+x9 <=1 
C138: x4+x13 <=1 
C139: x4+x14 <=1 
C140: x4+x16 <=1 
C141: x4+x18 <=1 
C142: x4+x19-y4_19 <=1 
C143: x4+x20-y4_20 <=1 
C144: x4+x22 <=1 
C145: x4+x23-y4_23 <=1 
C146: x4+x24 <=1 
C147: x4+x25-y4_25 <=1 
C148: x4+x26 <=1 
C149: x4+x28-y4_28 <=1 
C150: x4+x29-y4_29 <=1 
C151: x4+x30-y4_30 <=1 
C152: x4+x33-y4_33 <=1 
C153: x4+x35-y4_35 <=1 
C154: x4+x38-y4_38 <=1 
C155: x4+x39-y4_39 <=1 
C156: x4+x42 <=1 
C157: x4+x43 <=1 
C158: x4+x44-y4_44 <=1 
C159: x4+x45 <=1 
C160: x4+x47-y4_47 <=1 
C161: x4+x48 <=1 
C162: x4+x50 <=1 
C163: x4+x52 <=1 
C164: x4+x53 <=1 
C165: x4+x54-y4_54 <=1 
C166: x4+x55-y4_55 <=1 
C167: x4+x59-y4_59 <=1 
C168: x4+x60 <=1 
C169: x4+x62-y4_62 <=1 
C170: x4+x64-y4_64 <=1 
C171: x5+x7 <=1 
C172: x5+x8 <=1 
C173: x5+x10-y5_10 <=1 
C174: x5+x11 <=1 
C175: x5+x12 <=1 
C176: x5+x14 <=1 
C177: x5+x15 <=1 
C178: x5+x19 <=1 
C179: x5+x22-y5_22 <=1 
C180: x5+x23-y5_23 <=1 
C181: x5+x24 <=1 
C182: x5+x27 <=1 
C183: x5+x29-y5_29 <=1 
C184: x5+x30 <=1 
C185: x5+x32 <=1 
C186: x5+x35 <=1 
C187: x5+x38-y5_38 <=1 
C188: x5+x39 <=1 
C189: x5+x40-y5_40 <=1 
C190: x5+x42-y5_42 <=1 
C191: x5+x44 <=1 
C192: x5+x46-y5_46 <=1 
C193: x5+x47-y5_47 <=1 
C194: x5+x48 <=1 
C195: x5+x49 <=1 
C196: x5+x50-y5_50 <=1 
C197: x5+x52-y5_52 <=1 
C198: x5+x54 <=1 
C199: x5+x55 <=1 
C200: x5+x56-y5_56 <=1 
C201: x5+x57-y5_57 <=1 
C202: x5+x60-y5_60 <=1 
C203: x5+x63-y5_63 <=1 
C204: x6+x7 <=1 
C205: x6+x8 <=1 
C206: x6+x11 <=1 
C207: x6+x12 <=1 
C208: x6+x14-y6_14 <=1 
C209: x6+x15-y6_15 <=1 
C210: x6+x16 <=1 
C211: x6+x17 <=1 
C212: x6+x18-y6_18 <=1 
C213: x6+x19 <=1 
C214: x6+x20-y6_20 <=1 
C215: x6+x22 <=1 
C216: x6+x23 <=1 
C217: x6+x24 <=1 
C218: x6+x26-y6_26 <=1 
C219: x6+x27 <=1 
C220: x6+x28-y6_28 <=1 
C221: x6+x32-y6_32 <=1 
C222: x6+x33-y6_33 <=1 
C223: x6+x34 <=1 
C224: x6+x36-y6_36 <=1 
C225: x6+x37 <=1 
C226: x6+x40 <=1 
C227: x6+x42-y6_42 <=1 
C228: x6+x45-y6_45 <=1 
C229: x6+x46-y6_46 <=1 
C230: x6+x47-y6_47 <=1 
C231: x6+x48-y6_48 <=1 
C232: x6+x50-y6_50 <=1 
C233: x6+x51-y6_51 <=1 
C234: x6+x52-y6_52 <=1 
C235: x6+x54-y6_54 <=1 
C236: x6+x61 <=1 
C237: x6+x62-y6_62 <=1 
C238: x6+x64-y6_64 <=1 
C239: x7+x8-y7_8 <=1 
C240: x7+x10 <=1 
C241: x7+x14 <=1 
C242: x7+x15-y7_15 <=1 
C243: x7+x17-y7_17 <=1 
C244: x7+x20-y7_20 <=1 
C245: x7+x22 <=1 
C246: x7+x23-y7_23 <=1 
C247: x7+x24 <=1 
C248: x7+x27 <=1 
C249: x7+x29 <=1 
C250: x7+x31-y7_31 <=1 
C251: x7+x32-y7_32 <=1 
C252: x7+x35-y7_35 <=1 
C253: x7+x36-y7_36 <=1 
C254: x7+x37-y7_37 <=1 
C255: x7+x38-y7_38 <=1 
C256: x7+x39-y7_39 <=1 
C257: x7+x40 <=1 
C258: x7+x41-y7_41 <=1 
C259: x7+x42-y7_42 <=1 
C260: x7+x45-y7_45 <=1 
C261: x7+x46 <=1 
C262: x7+x48-y7_48 <=1 
C263: x7+x49 <=1 
C264: x7+x52-y7_52 <=1 
C265: x7+x53 <=1 
C266: x7+x55-y7_55 <=1 
C267: x7+x56 <=1 
C268: x7+x57-y7_57 <=1 
C269: x7+x59 <=1 
C270: x7+x61-y7_61 <=1 
C271: x7+x62-y7_62 <=1 
C272: x7+x63-y7_63 <=1 
C273: x8+x10 <=1 
C274: x8+x11-y8_11 <=1 
C275: x8+x13 <=1 
C276: x8+x16-y8_16 <=1 
C277: x8+x18-y8_18 <=1 
C278: x8+x20 <=1 
C279: x8+x22 <=1 
C280: x8+x23 <=1 
C281: x8+x24 <=1 
C282: x8+x26 <=1 
C283: x8+x27 <=1 
C284: x8+x30 <=1 
C285: x8+x31 <=1 
C286: x8+x32 <=1 
C287: x8+x33 <=1 
C288: x8+x34 <=1 
C289: x8+x36 <=1 
C290: x8+x39 <=1 
C291: x8+x40 <=1 
C292: x8+x41 <=1 
C293: x8+x42-y8_42 <=1 
C294: x8+x43 <=1 
C295: x8+x46 <=1 
C296: x8+x50-y8_50 <=1 
C297: x8+x53-y8_53 <=1 
C298: x8+x54 <=1 
C299: x8+x57 <=1 
C300: x8+x58-y8_58 <=1 
C301: x8+x59-y8_59 <=1 
C302: x8+x62-y8_62 <=1 
C303: x8+x63-y8_63 <=1 
C304: x8+x64 <=1 
C305: x9+x10-y9_10 <=1 
C306: x9+x12 <=1 
C307: x9+x13-y9_13 <=1 
C308: x9+x14-y9_14 <=1 
C309: x9+x15-y9_15 <=1 
C310: x9+x16-y9_16 <=1 
C311: x9+x17 <=1 
C312: x9+x18-y9_18 <=1 
C313: x9+x20-y9_20 <=1 
C314: x9+x21-y9_21 <=1 
C315: x9+x22 <=1 
C316: x9+x23 <=1 
C317: x9+x24 <=1 
C318: x9+x25 <=1 
C319: x9+x27-y9_27 <=1 
C320: x9+x28 <=1 
C321: x9+x29 <=1 
C322: x9+x30-y9_30 <=1 
C323: x9+x31-y9_31 <=1 
C324: x9+x33-y9_33 <=1 
C325: x9+x34 <=1 
C326: x9+x36-y9_36 <=1 
C327: x9+x37 <=1 
C328: x9+x38-y9_38 <=1 
C329: x9+x41 <=1 
C330: x9+x43 <=1 
C331: x9+x44 <=1 
C332: x9+x45-y9_45 <=1 
C333: x9+x47-y9_47 <=1 
C334: x9+x48 <=1 
C335: x9+x49-y9_49 <=1 
C336: x9+x50 <=1 
C337: x9+x53 <=1 
C338: x9+x54 <=1 
C339: x9+x55-y9_55 <=1 
C340: x9+x57-y9_57 <=1 
C341: x9+x58 <=1 
C342: x9+x59 <=1 
C343: x9+x60 <=1 
C344: x9+x61 <=1 
C345: x9+x62 <=1 
C346: x9+x64 <=1 
C347: x10+x12-y10_12 <=1 
C348: x10+x13-y10_13 <=1 
C349: x10+x15-y10_15 <=1 
C350: x10+x16 <=1 
C351: x10+x17-y10_17 <=1 
C352: x10+x18-y10_18 <=1 
C353: x10+x19-y10_19 <=1 
C354: x10+x21-y10_21 <=1 
C355: x10+x22 <=1 
C356: x10+x23 <=1 
C357: x10+x24 <=1 
C358: x10+x26 <=1 
C359: x10+x27 <=1 
C360: x10+x29 <=1 
C361: x10+x30 <=1 
C362: x10+x34 <=1 
C363: x10+x35-y10_35 <=1 
C364: x10+x36 <=1 
C365: x10+x37-y10_37 <=1 
C366: x10+x38-y10_38 <=1 
C367: x10+x39 <=1 
C368: x10+x40-y10_40 <=1 
C369: x10+x44 <=1 
C370: x10+x45 <=1 
C371: x10+x47-y10_47 <=1 
C372: x10+x48-y10_48 <=1 
C373: x10+x49 <=1 
C374: x10+x50 <=1 
C375: x10+x51 <=1 
C376: x10+x52-y10_52 <=1 
C377: x10+x54 <=1 
C378: x10+x55 <=1 
C379: x10+x56-y10_56 <=1 
C380: x10+x57 <=1 
C381: x10+x58 <=1 
C382: x10+x60 <=1 
C383: x10+x62-y10_62 <=1 
C384: x10+x63 <=1 
C385: x11+x12 <=1 
C386: x11+x14-y11_14 <=1 
C387: x11+x15 <=1 
C388: x11+x17-y11_17 <=1 
C389: x11+x18-y11_18 <=1 
C390: x11+x19 <=1 
C391: x11+x20 <=1 
C392: x11+x21-y11_21 <=1 
C393: x11+x22-y11_22 <=1 
C394: x11+x23 <=1 
C395: x11+x25 <=1 
C396: x11+x26 <=1 
C397: x11+x27-y11_27 <=1 
C398: x11+x29 <=1 
C399: x11+x30 <=1 
C400: x11+x32 <=1 
C401: x11+x33-y11_33 <=1 
C402: x11+x34 <=1 
C403: x11+x38-y11_38 <=1 
C404: x11+x39 <=1 
C405: x11+x40 <=1 
C406: x11+x41 <=1 
C407: x11+x44 <=1 
C408: x11+x48-y11_48 <=1 
C409: x11+x49-y11_49 <=1 
C410: x11+x50 <=1 
C411: x11+x51 <=1 
C412: x11+x53-y11_53 <=1 
C413: x11+x54 <=1 
C414: x11+x56-y11_56 <=1 
C415: x11+x57 <=1 
C416: x11+x58 <=1 
C417: x11+x59 <=1 
C418: x11+x62 <=1 
C419: x12+x13-y12_13 <=1 
C420: x12+x14-y12_14 <=1 
C421: x12+x19 <=1 
C422: x12+x20 <=1 
C423: x12+x21 <=1 
C424: x12+x22 <=1 
C425: x12+x23 <=1 
C426: x12+x25 <=1 
C427: x12+x29 <=1 
C428: x12+x30 <=1 
C429: x12+x31 <=1 
C430: x12+x34-y12_34 <=1 
C431: x12+x35 <=1 
C432: x12+x36 <=1 
C433: x12+x37 <=1 
C434: x12+x38-y12_38 <=1 
C435: x12+x39-y12_39 <=1 
C436: x12+x43-y12_43 <=1 
C437: x12+x44 <=1 
C438: x12+x47 <=1 
C439: x12+x50 <=1 
C440: x12+x51-y12_51 <=1 
C441: x12+x53 <=1 
C442: x12+x54-y12_54 <=1 
C443: x12+x56 <=1 
C444: x12+x57-y12_57 <=1 
C445: x12+x59 <=1 
C446: x12+x60-y12_60 <=1 
C447: x12+x62-y12_62 <=1 
C448: x12+x63 <=1 
C449: x13+x16 <=1 
C450: x13+x17-y13_17 <=1 
C451: x13+x19 <=1 
C452: x13+x20-y13_20 <=1 
C453: x13+x21-y13_21 <=1 
C454: x13+x22 <=1 
C455: x13+x23-y13_23 <=1 
C456: x13+x26-y13_26 <=1 
C457: x13+x27 <=1 
C458: x13+x28 <=1 
C459: x13+x32-y13_32 <=1 
C460: x13+x35-y13_35 <=1 
C461: x13+x36-y13_36 <=1 
C462: x13+x37 <=1 
C463: x13+x39 <=1 
C464: x13+x40 <=1 
C465: x13+x43-y13_43 <=1 
C466: x13+x44 <=1 
C467: x13+x47-y13_47 <=1 
C468: x13+x49 <=1 
C469: x13+x50 <=1 
C470: x13+x51 <=1 
C471: x13+x53-y13_53 <=1 
C472: x13+x54 <=1 
C473: x13+x56 <=1 
C474: x13+x58-y13_58 <=1 
C475: x13+x60 <=1 
C476: x13+x61 <=1 
C477: x13+x62-y13_62 <=1 
C478: x13+x63 <=1 
C479: x13+x64-y13_64 <=1 
C480: x14+x16-y14_16 <=1 
C481: x14+x17 <=1 
C482: x14+x18 <=1 
C483: x14+x20-y14_20 <=1 
C484: x14+x23-y14_23 <=1 
C485: x14+x26 <=1 
C486: x14+x27-y14_27 <=1 
C487: x14+x29 <=1 
C488: x14+x32-y14_32 <=1 
C489: x14+x35 <=1 
C490: x14+x38-y14_38 <=1 
C491: x14+x40 <=1 
C492: x14+x44 <=1 
C493: x14+x45 <=1 
C494: x14+x46 <=1 
C495: x14+x48 <=1 
C496: x14+x49 <=1 
C497: x14+x51 <=1 
C498: x14+x52-y14_52 <=1 
C499: x14+x53-y14_53 <=1 
C500: x14+x55 <=1 
C501: x14+x56 <=1 
C502: x14+x57-y14_57 <=1 
C503: x14+x58 <=1 
C504: x14+x59-y14_59 <=1 
C505: x14+x63-y14_63 <=1 
C506: x15+x16-y15_16 <=1 
C507: x15+x17 <=1 
C508: x15+x18-y15_18 <=1 
C509: x15+x22-y15_22 <=1 
C510: x15+x23-y15_23 <=1 
C511: x15+x24 <=1 
C512: x15+x25-y15_25 <=1 
C513: x15+x26-y15_26 <=1 
C514: x15+x27-y15_27 <=1 
C515: x15+x29 <=1 
C516: x15+x30 <=1 
C517: x15+x32 <=1 
C518: x15+x35-y15_35 <=1 
C519: x15+x36-y15_36 <=1 
C520: x15+x37-y15_37 <=1 
C521: x15+x38 <=1 
C522: x15+x41 <=1 
C523: x15+x43-y15_43 <=1 
C524: x15+x44-y15_44 <=1 
C525: x15+x47 <=1 
C526: x15+x48 <=1 
C527: x15+x52 <=1 
C528: x15+x53-y15_53 <=1 
C529: x15+x56-y15_56 <=1 
C530: x15+x57-y15_57 <=1 
C531: x15+x58 <=1 
C532: x15+x59-y15_59 <=1 
C533: x15+x60-y15_60 <=1 
C534: x15+x61 <=1 
C535: x15+x63 <=1 
C536: x15+x64-y15_64 <=1 
C537: x16+x18-y16_18 <=1 
C538: x16+x19-y16_19 <=1 
C539: x16+x21 <=1 
C540: x16+x24-y16_24 <=1 
C541: x16+x25 <=1 
C542: x16+x26 <=1 
C543: x16+x27 <=1 
C544: x16+x28 <=1 
C545: x16+x29 <=1 
C546: x16+x30 <=1 
C547: x16+x32-y16_32 <=1 
C548: x16+x36-y16_36 <=1 
C549: x16+x37-y16_37 <=1 
C550: x16+x38-y16_38 <=1 
C551: x16+x39 <=1 
C552: x16+x40-y16_40 <=1 
C553: x16+x41 <=1 
C554: x16+x46-y16_46 <=1 
C555: x16+x47-y16_47 <=1 
C556: x16+x48-y16_48 <=1 
C557: x16+x50-y16_50 <=1 
C558: x16+x53-y16_53 <=1 
C559: x16+x54 <=1 
C560: x16+x55-y16_55 <=1 
C561: x16+x56 <=1 
C562: x16+x57-y16_57 <=1 
C563: x16+x61-y16_61 <=1 
C564: x16+x63-y16_63 <=1 
C565: x16+x64 <=1 
C566: x17+x18-y17_18 <=1 
C567: x17+x19 <=1 
C568: x17+x20-y17_20 <=1 
C569: x17+x21-y17_21 <=1 
C570: x17+x22 <=1 
C571: x17+x23-y17_23 <=1 
C572: x17+x26-y17_26 <=1 
C573: x17+x30 <=1 
C574: x17+x32 <=1 
C575: x17+x33 <=1 
C576: x17+x35 <=1 
C577: x17+x38 <=1 
C578: x17+x40 <=1 
C579: x17+x43 <=1 
C580: x17+x44 <=1 
C581: x17+x45-y17_45 <=1 
C582: x17+x47-y17_47 <=1 
C583: x17+x48-y17_48 <=1 
C584: x17+x50 <=1 
C585: x17+x51 <=1 
C586: x17+x52-y17_52 <=1 
C587: x17+x54-y17_54 <=1 
C588: x17+x56-y17_56 <=1 
C589: x17+x58 <=1 
C590: x17+x62 <=1 
C591: x18+x19-y18_19 <=1 
C592: x18+x20 <=1 
C593: x18+x21 <=1 
C594: x18+x23 <=1 
C595: x18+x24 <=1 
C596: x18+x26 <=1 
C597: x18+x28 <=1 
C598: x18+x29 <=1 
C599: x18+x30-y18_30 <=1 
C600: x18+x32-y18_32 <=1 
C601: x18+x36 <=1 
C602: x18+x38 <=1 
C603: x18+x39 <=1 
C604: x18+x40-y18_40 <=1 
C605: x18+x41-y18_41 <=1 
C606: x18+x42 <=1 
C607: x18+x43 <=1 
C608: x18+x45-y18_45 <=1 
C609: x18+x46-y18_46 <=1 
C610: x18+x47-y18_47 <=1 
C611: x18+x49 <=1 
C612: x18+x52-y18_52 <=1 
C613: x18+x53 <=1 
C614: x18+x54 <=1 
C615: x18+x59 <=1 
C616: x18+x62 <=1 
C617: x18+x64-y18_64 <=1 
C618: x19+x20-y19_20 <=1 
C619: x19+x21-y19_21 <=1 
C620: x19+x22 <=1 
C621: x19+x24-y19_24 <=1 
C622: x19+x26-y19_26 <=1 
C623: x19+x28-y19_28 <=1 
C624: x19+x29-y19_29 <=1 
C625: x19+x30 <=1 
C626: x19+x34-y19_34 <=1 
C627: x19+x35-y19_35 <=1 
C628: x19+x36 <=1 
C629: x19+x37-y19_37 <=1 
C630: x19+x39 <=1 
C631: x19+x41-y19_41 <=1 
C632: x19+x42 <=1 
C633: x19+x44-y19_44 <=1 
C634: x19+x45 <=1 
C635: x19+x47 <=1 
C636: x19+x49 <=1 
C637: x19+x50 <=1 
C638: x19+x51 <=1 
C639: x19+x52-y19_52 <=1 
C640: x19+x53-y19_53 <=1 
C641: x19+x54-y19_54 <=1 
C642: x19+x55-y19_55 <=1 
C643: x19+x56-y19_56 <=1 
C644: x19+x57-y19_57 <=1 
C645: x19+x61-y19_61 <=1 
C646: x19+x62 <=1 
C647: x19+x64 <=1 
C648: x20+x21 <=1 
C649: x20+x23-y20_23 <=1 
C650: x20+x24-y20_24 <=1 
C651: x20+x25 <=1 
C652: x20+x26-y20_26 <=1 
C653: x20+x27-y20_27 <=1 
C654: x20+x32 <=1 
C655: x20+x34-y20_34 <=1 
C656: x20+x35-y20_35 <=1 
C657: x20+x36 <=1 
C658: x20+x37 <=1 
C659: x20+x38 <=1 
C660: x20+x40 <=1 
C661: x20+x42-y20_42 <=1 
C662: x20+x43 <=1 
C663: x20+x45 <=1 
C664: x20+x46-y20_46 <=1 
C665: x20+x47-y20_47 <=1 
C666: x20+x48 <=1 
C667: x20+x50-y20_50 <=1 
C668: x20+x51 <=1 
C669: x20+x53-y20_53 <=1 
C670: x20+x55 <=1 
C671: x20+x57 <=1 
C672: x20+x61 <=1 
C673: x20+x63-y20_63 <=1 
C674: x20+x64 <=1 
C675: x21+x23-y21_23 <=1 
C676: x21+x26 <=1 
C677: x21+x27-y21_27 <=1 
C678: x21+x28-y21_28 <=1 
C679: x21+x30-y21_30 <=1 
C680: x21+x31-y21_31 <=1 
C681: x21+x32-y21_32 <=1 
C682: x21+x35 <=1 
C683: x21+x37-y21_37 <=1 
C684: x21+x39-y21_39 <=1 
C685: x21+x40 <=1 
C686: x21+x42 <=1 
C687: x21+x43 <=1 
C688: x21+x44 <=1 
C689: x21+x45 <=1 
C690: x21+x46 <=1 
C691: x21+x47 <=1 
C692: x21+x49-y21_49 <=1 
C693: x21+x52-y21_52 <=1 
C694: x21+x53-y21_53 <=1 
C695: x21+x55-y21_55 <=1 
C696: x21+x57 <=1 
C697: x21+x59-y21_59 <=1 
C698: x21+x60-y21_60 <=1 
C699: x21+x62 <=1 
C700: x22+x23-y22_23 <=1 
C701: x22+x24 <=1 
C702: x22+x26 <=1 
C703: x22+x27-y22_27 <=1 
C704: x22+x28 <=1 
C705: x22+x32 <=1 
C706: x22+x33 <=1 
C707: x22+x35-y22_35 <=1 
C708: x22+x36 <=1 
C709: x22+x37-y22_37 <=1 
C710: x22+x38 <=1 
C711: x22+x40 <=1 
C712: x22+x41-y22_41 <=1 
C713: x22+x43-y22_43 <=1 
C714: x22+x44 <=1 
C715: x22+x46-y22_46 <=1 
C716: x22+x47 <=1 
C717: x22+x49 <=1 
C718: x22+x51-y22_51 <=1 
C719: x22+x53 <=1 
C720: x22+x54-y22_54 <=1 
C721: x22+x57-y22_57 <=1 
C722: x22+x58-y22_58 <=1 
C723: x22+x59 <=1 
C724: x22+x60-y22_60 <=1 
C725: x22+x61 <=1 
C726: x22+x62-y22_62 <=1 
C727: x23+x24-y23_24 <=1 
C728: x23+x25 <=1 
C729: x23+x27 <=1 
C730: x23+x30 <=1 
C731: x23+x31-y23_31 <=1 
C732: x23+x32 <=1 
C733: x23+x34-y23_34 <=1 
C734: x23+x37-y23_37 <=1 
C735: x23+x40 <=1 
C736: x23+x41 <=1 
C737: x23+x43-y23_43 <=1 
C738: x23+x45 <=1 
C739: x23+x46 <=1 
C740: x23+x48-y23_48 <=1 
C741: x23+x50-y23_50 <=1 
C742: x23+x51 <=1 
C743: x23+x52-y23_52 <=1 
C744: x23+x53-y23_53 <=1 
C745: x23+x54 <=1 
C746: x23+x58 <=1 
C747: x23+x59-y23_59 <=1 
C748: x23+x61 <=1 
C749: x23+x62-y23_62 <=1 
C750: x23+x64-y23_64 <=1 
C751: x24+x25-y24_25 <=1 
C752: x24+x28-y24_28 <=1 
C753: x24+x31-y24_31 <=1 
C754: x24+x33-y24_33 <=1 
C755: x24+x34 <=1 
C756: x24+x36 <=1 
C757: x24+x39-y24_39 <=1 
C758: x24+x41-y24_41 <=1 
C759: x24+x42-y24_42 <=1 
C760: x24+x45 <=1 
C761: x24+x46-y24_46 <=1 
C762: x24+x48-y24_48 <=1 
C763: x24+x53 <=1 
C764: x24+x54 <=1 
C765: x24+x56 <=1 
C766: x24+x57-y24_57 <=1 
C767: x24+x58 <=1 
C768: x24+x60-y24_60 <=1 
C769: x24+x61-y24_61 <=1 
C770: x24+x62 <=1 
C771: x24+x63-y24_63 <=1 
C772: x24+x64 <=1 
C773: x25+x26-y25_26 <=1 
C774: x25+x28-y25_28 <=1 
C775: x25+x29-y25_29 <=1 
C776: x25+x30-y25_30 <=1 
C777: x25+x31-y25_31 <=1 
C778: x25+x32 <=1 
C779: x25+x35-y25_35 <=1 
C780: x25+x36-y25_36 <=1 
C781: x25+x37-y25_37 <=1 
C782: x25+x38-y25_38 <=1 
C783: x25+x40 <=1 
C784: x25+x41 <=1 
C785: x25+x42-y25_42 <=1 
C786: x25+x43 <=1 
C787: x25+x45 <=1 
C788: x25+x46-y25_46 <=1 
C789: x25+x48 <=1 
C790: x25+x49 <=1 
C791: x25+x51 <=1 
C792: x25+x52-y25_52 <=1 
C793: x25+x53-y25_53 <=1 
C794: x25+x57-y25_57 <=1 
C795: x25+x64-y25_64 <=1 
C796: x26+x28 <=1 
C797: x26+x29 <=1 
C798: x26+x30 <=1 
C799: x26+x32 <=1 
C800: x26+x35 <=1 
C801: x26+x36 <=1 
C802: x26+x37-y26_37 <=1 
C803: x26+x38-y26_38 <=1 
C804: x26+x40 <=1 
C805: x26+x41 <=1 
C806: x26+x42 <=1 
C807: x26+x43 <=1 
C808: x26+x44 <=1 
C809: x26+x47-y26_47 <=1 
C810: x26+x48-y26_48 <=1 
C811: x26+x49-y26_49 <=1 
C812: x26+x50 <=1 
C813: x26+x54-y26_54 <=1 
C814: x26+x55-y26_55 <=1 
C815: x26+x56-y26_56 <=1 
C816: x26+x57-y26_57 <=1 
C817: x26+x58-y26_58 <=1 
C818: x26+x60-y26_60 <=1 
C819: x26+x61-y26_61 <=1 
C820: x26+x62 <=1 
C821: x27+x28 <=1 
C822: x27+x29-y27_29 <=1 
C823: x27+x30-y27_30 <=1 
C824: x27+x31-y27_31 <=1 
C825: x27+x32-y27_32 <=1 
C826: x27+x33-y27_33 <=1 
C827: x27+x34 <=1 
C828: x27+x35-y27_35 <=1 
C829: x27+x37 <=1 
C830: x27+x38 <=1 
C831: x27+x41-y27_41 <=1 
C832: x27+x42 <=1 
C833: x27+x44-y27_44 <=1 
C834: x27+x46-y27_46 <=1 
C835: x27+x47 <=1 
C836: x27+x48-y27_48 <=1 
C837: x27+x50-y27_50 <=1 
C838: x27+x51-y27_51 <=1 
C839: x27+x53 <=1 
C840: x27+x54-y27_54 <=1 
C841: x27+x56 <=1 
C842: x27+x57-y27_57 <=1 
C843: x27+x58 <=1 
C844: x27+x60 <=1 
C845: x27+x62-y27_62 <=1 
C846: x27+x63-y27_63 <=1 
C847: x27+x64 <=1 
C848: x28+x29 <=1 
C849: x28+x30 <=1 
C850: x28+x31 <=1 
C851: x28+x34-y28_34 <=1 
C852: x28+x35 <=1 
C853: x28+x36 <=1 
C854: x28+x37-y28_37 <=1 
C855: x28+x38 <=1 
C856: x28+x41-y28_41 <=1 
C857: x28+x43-y28_43 <=1 
C858: x28+x44-y28_44 <=1 
C859: x28+x46-y28_46 <=1 
C860: x28+x48 <=1 
C861: x28+x50-y28_50 <=1 
C862: x28+x54 <=1 
C863: x28+x55-y28_55 <=1 
C864: x28+x57-y28_57 <=1 
C865: x28+x58-y28_58 <=1 
C866: x28+x60-y28_60 <=1 
C867: x28+x61-y28_61 <=1 
C868: x28+x64-y28_64 <=1 
C869: x29+x31 <=1 
C870: x29+x32 <=1 
C871: x29+x33 <=1 
C872: x29+x34-y29_34 <=1 
C873: x29+x38-y29_38 <=1 
C874: x29+x40 <=1 
C875: x29+x41-y29_41 <=1 
C876: x29+x44-y29_44 <=1 
C877: x29+x45-y29_45 <=1 
C878: x29+x46 <=1 
C879: x29+x48-y29_48 <=1 
C880: x29+x50 <=1 
C881: x29+x52-y29_52 <=1 
C882: x29+x53 <=1 
C883: x29+x54-y29_54 <=1 
C884: x29+x55-y29_55 <=1 
C885: x29+x56-y29_56 <=1 
C886: x29+x59-y29_59 <=1 
C887: x29+x61-y29_61 <=1 
C888: x29+x62-y29_62 <=1 
C889: x30+x32-y30_32 <=1 
C890: x30+x33 <=1 
C891: x30+x34 <=1 
C892: x30+x37-y30_37 <=1 
C893: x30+x38-y30_38 <=1 
C894: x30+x43-y30_43 <=1 
C895: x30+x44-y30_44 <=1 
C896: x30+x46-y30_46 <=1 
C897: x30+x47 <=1 
C898: x30+x49-y30_49 <=1 
C899: x30+x50 <=1 
C900: x30+x51 <=1 
C901: x30+x53 <=1 
C902: x30+x54 <=1 
C903: x30+x57-y30_57 <=1 
C904: x30+x58 <=1 
C905: x30+x60-y30_60 <=1 
C906: x30+x61 <=1 
C907: x30+x62-y30_62 <=1 
C908: x31+x37 <=1 
C909: x31+x40 <=1 
C910: x31+x43 <=1 
C911: x31+x45 <=1 
C912: x31+x46 <=1 
C913: x31+x47-y31_47 <=1 
C914: x31+x49 <=1 
C915: x31+x50-y31_50 <=1 
C916: x31+x52 <=1 
C917: x31+x55-y31_55 <=1 
C918: x31+x56 <=1 
C919: x31+x58-y31_58 <=1 
C920: x31+x63-y31_63 <=1 
C921: x31+x64-y31_64 <=1 
C922: x32+x35 <=1 
C923: x32+x36-y32_36 <=1 
C924: x32+x40-y32_40 <=1 
C925: x32+x41-y32_41 <=1 
C926: x32+x42-y32_42 <=1 
C927: x32+x43 <=1 
C928: x32+x45-y32_45 <=1 
C929: x32+x46-y32_46 <=1 
C930: x32+x47 <=1 
C931: x32+x52-y32_52 <=1 
C932: x32+x54-y32_54 <=1 
C933: x32+x55 <=1 
C934: x32+x57 <=1 
C935: x32+x59 <=1 
C936: x32+x61-y32_61 <=1 
C937: x32+x62-y32_62 <=1 
C938: x32+x63-y32_63 <=1 
C939: x32+x64 <=1 
C940: x33+x34-y33_34 <=1 
C941: x33+x35 <=1 
C942: x33+x36-y33_36 <=1 
C943: x33+x37-y33_37 <=1 
C944: x33+x38-y33_38 <=1 
C945: x33+x39 <=1 
C946: x33+x42 <=1 
C947: x33+x44-y33_44 <=1 
C948: x33+x46 <=1 
C949: x33+x47-y33_47 <=1 
C950: x33+x48 <=1 
C951: x33+x49 <=1 
C952: x33+x51-y33_51 <=1 
C953: x33+x53-y33_53 <=1 
C954: x33+x60-y33_60 <=1 
C955: x33+x61 <=1 
C956: x33+x62 <=1 
C957: x33+x63-y33_63 <=1 
C958: x33+x64 <=1 
C959: x34+x35 <=1 
C960: x34+x36-y34_36 <=1 
C961: x34+x38 <=1 
C962: x34+x39 <=1 
C963: x34+x40 <=1 
C964: x34+x41 <=1 
C965: x34+x42 <=1 
C966: x34+x43 <=1 
C967: x34+x45 <=1 
C968: x34+x47 <=1 
C969: x34+x48-y34_48 <=1 
C970: x34+x49-y34_49 <=1 
C971: x34+x50 <=1 
C972: x34+x51 <=1 
C973: x34+x52 <=1 
C974: x34+x53-y34_53 <=1 
C975: x34+x54 <=1 
C976: x34+x56 <=1 
C977: x34+x57-y34_57 <=1 
C978: x34+x58-y34_58 <=1 
C979: x34+x59 <=1 
C980: x34+x60-y34_60 <=1 
C981: x34+x61-y34_61 <=1 
C982: x34+x63 <=1 
C983: x35+x37-y35_37 <=1 
C984: x35+x42-y35_42 <=1 
C985: x35+x43-y35_43 <=1 
C986: x35+x44-y35_44 <=1 
C987: x35+x45-y35_45 <=1 
C988: x35+x48-y35_48 <=1 
C989: x35+x49 <=1 
C990: x35+x50-y35_50 <=1 
C991: x35+x53-y35_53 <=1 
C992: x35+x55 <=1 
C993: x35+x56 <=1 
C994: x35+x57 <=1 
C995: x35+x58-y35_58 <=1 
C996: x35+x60 <=1 
C997: x35+x61 <=1 
C998: x35+x64 <=1 
C999: x36+x38 <=1 
C1000: x36+x40-y36_40 <=1 
C1001: x36+x41-y36_41 <=1 
C1002: x36+x42-y36_42 <=1 
C1003: x36+x46 <=1 
C1004: x36+x47 <=1 
C1005: x36+x48 <=1 
C1006: x36+x50 <=1 
C1007: x36+x52 <=1 
C1008: x36+x53-y36_53 <=1 
C1009: x36+x55 <=1 
C1010: x36+x56-y36_56 <=1 
C1011: x36+x57 <=1 
C1012: x36+x58 <=1 
C1013: x36+x60 <=1 
C1014: x36+x63-y36_63 <=1 
C1015: x36+x64-y36_64 <=1 
C1016: x37+x38-y37_38 <=1 
C1017: x37+x40-y37_40 <=1 
C1018: x37+x41-y37_41 <=1 
C1019: x37+x42 <=1 
C1020: x37+x43-y37_43 <=1 
C1021: x37+x44 <=1 
C1022: x37+x45 <=1 
C1023: x37+x46 <=1 
C1024: x37+x47-y37_47 <=1 
C1025: x37+x52-y37_52 <=1 
C1026: x37+x54-y37_54 <=1 
C1027: x37+x55-y37_55 <=1 
C1028: x37+x56 <=1 
C1029: x37+x58-y37_58 <=1 
C1030: x37+x59 <=1 
C1031: x37+x60 <=1 
C1032: x37+x61 <=1 
C1033: x37+x63-y37_63 <=1 
C1034: x37+x64-y37_64 <=1 
C1035: x38+x39-y38_39 <=1 
C1036: x38+x42-y38_42 <=1 
C1037: x38+x46-y38_46 <=1 
C1038: x38+x47 <=1 
C1039: x38+x48 <=1 
C1040: x38+x49 <=1 
C1041: x38+x50 <=1 
C1042: x38+x51-y38_51 <=1 
C1043: x38+x53-y38_53 <=1 
C1044: x38+x54-y38_54 <=1 
C1045: x38+x57 <=1 
C1046: x38+x58 <=1 
C1047: x38+x60 <=1 
C1048: x38+x62 <=1 
C1049: x38+x63 <=1 
C1050: x39+x40-y39_40 <=1 
C1051: x39+x41-y39_41 <=1 
C1052: x39+x44-y39_44 <=1 
C1053: x39+x46 <=1 
C1054: x39+x47 <=1 
C1055: x39+x48-y39_48 <=1 
C1056: x39+x49-y39_49 <=1 
C1057: x39+x50-y39_50 <=1 
C1058: x39+x51-y39_51 <=1 
C1059: x39+x53-y39_53 <=1 
C1060: x39+x54 <=1 
C1061: x39+x58 <=1 
C1062: x39+x59 <=1 
C1063: x39+x62-y39_62 <=1 
C1064: x39+x63-y39_63 <=1 
C1065: x39+x64-y39_64 <=1 
C1066: x40+x42-y40_42 <=1 
C1067: x40+x45-y40_45 <=1 
C1068: x40+x48-y40_48 <=1 
C1069: x40+x49-y40_49 <=1 
C1070: x40+x50 <=1 
C1071: x40+x51 <=1 
C1072: x40+x52 <=1 
C1073: x40+x53-y40_53 <=1 
C1074: x40+x54 <=1 
C1075: x40+x56 <=1 
C1076: x40+x57 <=1 
C1077: x40+x58-y40_58 <=1 
C1078: x40+x62 <=1 
C1079: x40+x64-y40_64 <=1 
C1080: x41+x43-y41_43 <=1 
C1081: x41+x44-y41_44 <=1 
C1082: x41+x47 <=1 
C1083: x41+x49 <=1 
C1084: x41+x50-y41_50 <=1 
C1085: x41+x51-y41_51 <=1 
C1086: x41+x52 <=1 
C1087: x41+x53-y41_53 <=1 
C1088: x41+x54-y41_54 <=1 
C1089: x41+x56-y41_56 <=1 
C1090: x41+x57 <=1 
C1091: x41+x58 <=1 
C1092: x41+x59 <=1 
C1093: x41+x60 <=1 
C1094: x41+x61-y41_61 <=1 
C1095: x41+x62-y41_62 <=1 
C1096: x41+x63-y41_63 <=1 
C1097: x41+x64 <=1 
C1098: x42+x43-y42_43 <=1 
C1099: x42+x44-y42_44 <=1 
C1100: x42+x45 <=1 
C1101: x42+x48-y42_48 <=1 
C1102: x42+x51 <=1 
C1103: x42+x52-y42_52 <=1 
C1104: x42+x53 <=1 
C1105: x42+x54 <=1 
C1106: x42+x57 <=1 
C1107: x42+x58 <=1 
C1108: x42+x59-y42_59 <=1 
C1109: x42+x60 <=1 
C1110: x42+x61 <=1 
C1111: x42+x62 <=1 
C1112: x42+x63 <=1 
C1113: x42+x64 <=1 
C1114: x43+x44 <=1 
C1115: x43+x45 <=1 
C1116: x43+x46-y43_46 <=1 
C1117: x43+x47-y43_47 <=1 
C1118: x43+x49-y43_49 <=1 
C1119: x43+x50-y43_50 <=1 
C1120: x43+x51 <=1 
C1121: x43+x54-y43_54 <=1 
C1122: x43+x55 <=1 
C1123: x43+x59 <=1 
C1124: x43+x60 <=1 
C1125: x43+x62 <=1 
C1126: x43+x63-y43_63 <=1 
C1127: x43+x64 <=1 
C1128: x44+x45 <=1 
C1129: x44+x47 <=1 
C1130: x44+x50 <=1 
C1131: x44+x51 <=1 
C1132: x44+x52 <=1 
C1133: x44+x53 <=1 
C1134: x44+x56 <=1 
C1135: x44+x59 <=1 
C1136: x44+x60 <=1 
C1137: x44+x61 <=1 
C1138: x44+x62 <=1 
C1139: x44+x63-y44_63 <=1 
C1140: x45+x46 <=1 
C1141: x45+x47 <=1 
C1142: x45+x48 <=1 
C1143: x45+x51 <=1 
C1144: x45+x53 <=1 
C1145: x45+x55-y45_55 <=1 
C1146: x45+x56-y45_56 <=1 
C1147: x45+x57-y45_57 <=1 
C1148: x45+x59 <=1 
C1149: x45+x60 <=1 
C1150: x45+x61 <=1 
C1151: x45+x62 <=1 
C1152: x45+x63 <=1 
C1153: x46+x47-y46_47 <=1 
C1154: x46+x49 <=1 
C1155: x46+x50 <=1 
C1156: x46+x51-y46_51 <=1 
C1157: x46+x53-y46_53 <=1 
C1158: x46+x54-y46_54 <=1 
C1159: x46+x56-y46_56 <=1 
C1160: x46+x59-y46_59 <=1 
C1161: x46+x60-y46_60 <=1 
C1162: x46+x61 <=1 
C1163: x46+x63 <=1 
C1164: x46+x64-y46_64 <=1 
C1165: x47+x48-y47_48 <=1 
C1166: x47+x49-y47_49 <=1 
C1167: x47+x51-y47_51 <=1 
C1168: x47+x52-y47_52 <=1 
C1169: x47+x54 <=1 
C1170: x47+x55-y47_55 <=1 
C1171: x47+x56 <=1 
C1172: x47+x57 <=1 
C1173: x47+x58-y47_58 <=1 
C1174: x47+x60 <=1 
C1175: x47+x62 <=1 
C1176: x47+x63 <=1 
C1177: x47+x64 <=1 
C1178: x48+x49 <=1 
C1179: x48+x50-y48_50 <=1 
C1180: x48+x51 <=1 
C1181: x48+x52-y48_52 <=1 
C1182: x48+x54-y48_54 <=1 
C1183: x48+x55-y48_55 <=1 
C1184: x48+x56-y48_56 <=1 
C1185: x48+x58 <=1 
C1186: x48+x59-y48_59 <=1 
C1187: x48+x60-y48_60 <=1 
C1188: x48+x61-y48_61 <=1 
C1189: x48+x62-y48_62 <=1 
C1190: x48+x63-y48_63 <=1 
C1191: x49+x53 <=1 
C1192: x49+x54-y49_54 <=1 
C1193: x49+x56-y49_56 <=1 
C1194: x49+x57-y49_57 <=1 
C1195: x49+x59 <=1 
C1196: x49+x61-y49_61 <=1 
C1197: x49+x63-y49_63 <=1 
C1198: x50+x51 <=1 
C1199: x50+x53-y50_53 <=1 
C1200: x50+x54 <=1 
C1201: x50+x55 <=1 
C1202: x50+x56-y50_56 <=1 
C1203: x50+x57-y50_57 <=1 
C1204: x50+x59-y50_59 <=1 
C1205: x50+x61-y50_61 <=1 
C1206: x50+x63 <=1 
C1207: x51+x53 <=1 
C1208: x51+x54 <=1 
C1209: x51+x57-y51_57 <=1 
C1210: x51+x58-y51_58 <=1 
C1211: x51+x60 <=1 
C1212: x51+x61-y51_61 <=1 
C1213: x51+x62 <=1 
C1214: x51+x63-y51_63 <=1 
C1215: x51+x64-y51_64 <=1 
C1216: x52+x53-y52_53 <=1 
C1217: x52+x55 <=1 
C1218: x52+x57-y52_57 <=1 
C1219: x52+x59 <=1 
C1220: x52+x60-y52_60 <=1 
C1221: x52+x62-y52_62 <=1 
C1222: x52+x64 <=1 
C1223: x53+x54 <=1 
C1224: x53+x55 <=1 
C1225: x53+x58-y53_58 <=1 
C1226: x53+x59-y53_59 <=1 
C1227: x53+x60-y53_60 <=1 
C1228: x53+x61 <=1 
C1229: x53+x62-y53_62 <=1 
C1230: x54+x55-y54_55 <=1 
C1231: x54+x57-y54_57 <=1 
C1232: x54+x60-y54_60 <=1 
C1233: x54+x62 <=1 
C1234: x54+x63-y54_63 <=1 
C1235: x55+x56 <=1 
C1236: x55+x58 <=1 
C1237: x55+x60-y55_60 <=1 
C1238: x55+x61 <=1 
C1239: x55+x63 <=1 
C1240: x56+x58-y56_58 <=1 
C1241: x56+x59-y56_59 <=1 
C1242: x56+x60-y56_60 <=1 
C1243: x56+x64 <=1 
C1244: x57+x59-y57_59 <=1 
C1245: x57+x60 <=1 
C1246: x57+x64-y57_64 <=1 
C1247: x58+x60 <=1 
C1248: x58+x64-y58_64 <=1 
C1249: x59+x60-y59_60 <=1 
C1250: x59+x61 <=1 
C1251: x59+x62-y59_62 <=1 
C1252: x59+x63-y59_63 <=1 
C1253: x59+x64 <=1 
C1254: x60+x61 <=1 
C1255: x60+x62 <=1 
C1256: x60+x63 <=1 
C1257: x60+x64-y60_64 <=1 
C1258: x62+x64-y62_64 <=1 
C1259: x63+x64-y63_64 <=1 

binary
x0
x1
x2
x3
x4
x5
x6
x7
x8
x9
x10
x11
x12
x13
x14
x15
x16
x17
x18
x19
x20
x21
x22
x23
x24
x25
x26
x27
x28
x29
x30
x31
x32
x33
x34
x35
x36
x37
x38
x39
x40
x41
x42
x43
x44
x45
x46
x47
x48
x49
x50
x51
x52
x53
x54
x55
x56
x57
x58
x59
x60
x61
x62
x63
x64
