problem_generation/data/GISP/train/er_n=65_m=1259_p=0.60_SET2_setparam=100.00_alpha=0.50_871.sol
objective value:                                 1177
x2                                                  1 	(obj:100)
x3                                                  1 	(obj:100)
x4                                                  1 	(obj:100)
x17                                                 1 	(obj:100)
x21                                                 1 	(obj:100)
x23                                                 1 	(obj:100)
x29                                                 1 	(obj:100)
x34                                                 1 	(obj:100)
x36                                                 1 	(obj:100)
x37                                                 1 	(obj:100)
x49                                                 1 	(obj:100)
x64                                                 1 	(obj:100)
y21_37                                              1 	(obj:-1)
y2_36                                               1 	(obj:-1)
y3_37                                               1 	(obj:-1)
y3_23                                               1 	(obj:-1)
y21_49                                              1 	(obj:-1)
y23_34                                              1 	(obj:-1)
y17_23                                              1 	(obj:-1)
y4_29                                               1 	(obj:-1)
y23_37                                              1 	(obj:-1)
y3_64                                               1 	(obj:-1)
y3_49                                               1 	(obj:-1)
y36_64                                              1 	(obj:-1)
y29_34                                              1 	(obj:-1)
y3_21                                               1 	(obj:-1)
y23_64                                              1 	(obj:-1)
y21_23                                              1 	(obj:-1)
y4_64                                               1 	(obj:-1)
y17_21                                              1 	(obj:-1)
y4_23                                               1 	(obj:-1)
y37_64                                              1 	(obj:-1)
y34_36                                              1 	(obj:-1)
y3_34                                               1 	(obj:-1)
y34_49                                              1 	(obj:-1)
